
Gurobi 6.5.2 (linux64) logging started Sun Sep 18 18:40:56 2016


Gurobi 6.5.2 (linux64) logging started Sun Sep 18 18:40:56 2016

Optimize a model with 41 rows, 77 columns and 205 nonzeros
Coefficient statistics:
  Matrix range    [1e+00, 2e+00]
  Objective range [6e+00, 1e+02]
  Bounds range    [1e+00, 1e+00]
  RHS range       [1e+00, 1e+00]
Found heuristic solution: objective 627
Presolve removed 14 rows and 3 columns
Presolve time: 0.00s
Presolved: 27 rows, 74 columns, 152 nonzeros
Variable types: 0 continuous, 74 integer (74 binary)

Root relaxation: objective 4.067500e+02, 23 iterations, 0.00 seconds

    Nodes    |    Current Node    |     Objective Bounds      |     Work
 Expl Unexpl |  Obj  Depth IntInf | Incumbent    BestBd   Gap | It/Node Time

     0     0  406.75000    0   13  627.00000  406.75000  35.1%     -    0s
H    0     0                     505.0000000  406.75000  19.5%     -    0s
     0     0  493.00000    0    4  505.00000  493.00000  2.38%     -    0s
     0     0     cutoff    0       505.00000  504.00051  0.20%     -    0s

Cutting planes:
  Gomory: 6
  Cover: 15
  Lazy constraints: 1

Explored 0 nodes (40 simplex iterations) in 0.00 seconds
Thread count was 8 (of 8 available processors)

Optimal solution found (tolerance 1.00e-04)
Best objective 5.050000000000e+02, best bound 5.050000000000e+02, gap 0.0%
